benchmarks_CP/INST_36x36/30/inst36x36_30_22.dzn
S=6;
start=[|
31,	-1,	-1,	36,	-1,	-1,	2,	-1,	-1,	-1,	-1,	-1,	-1,	-1,	-1,	-1,	28,	-1,	-1,	-1,	-1,	16,	-1,	6,	-1,	-1,	-1,	33,	1,	-1,	23,	21,	12,	-1,	-1,	-1|
1,	-1,	-1,	19,	-1,	-1,	-1,	-1,	-1,	-1,	-1,	14,	-1,	-1,	33,	-1,	-1,	-1,	-1,	-1,	-1,	-1,	35,	-1,	25,	-1,	-1,	-1,	-1,	-1,	-1,	-1,	6,	-1,	-1,	4|
-1,	6,	21,	-1,	10,	-1,	-1,	-1,	-1,	-1,	26,	4,	-1,	-1,	-1,	13,	-1,	-1,	-1,	-1,	-1,	32,	24,	-1,	9,	-1,	-1,	30,	23,	35,	-1,	-1,	20,	-1,	-1,	-1|
-1,	-1,	-1,	-1,	-1,	-1,	-1,	10,	-1,	-1,	11,	-1,	-1,	-1,	-1,	20,	16,	-1,	27,	21,	-1,	-1,	-1,	-1,	-1,	26,	-1,	-1,	12,	-1,	-1,	-1,	-1,	13,	-1,	14|
4,	28,	-1,	-1,	-1,	-1,	-1,	30,	-1,	-1,	-1,	-1,	-1,	6,	25,	-1,	-1,	1,	14,	-1,	9,	-1,	-1,	-1,	-1,	-1,	17,	-1,	13,	32,	-1,	16,	-1,	-1,	7,	2|
-1,	20,	-1,	-1,	-1,	-1,	21,	8,	5,	-1,	-1,	-1,	19,	30,	-1,	-1,	29,	-1,	12,	-1,	-1,	-1,	1,	-1,	-1,	-1,	-1,	24,	10,	-1,	18,	-1,	-1,	28,	-1,	-1|
-1,	-1,	3,	30,	16,	27,	-1,	-1,	-1,	23,	-1,	-1,	20,	-1,	-1,	-1,	34,	-1,	-1,	-1,	8,	-1,	-1,	-1,	-1,	12,	33,	-1,	-1,	28,	-1,	-1,	-1,	21,	18,	-1|
-1,	-1,	1,	2,	35,	-1,	-1,	-1,	-1,	-1,	-1,	-1,	-1,	18,	-1,	21,	13,	-1,	22,	-1,	31,	3,	16,	15,	-1,	-1,	6,	-1,	27,	-1,	12,	-1,	-1,	36,	-1,	25|
-1,	-1,	-1,	-1,	-1,	-1,	-1,	4,	-1,	-1,	-1,	26,	-1,	-1,	30,	-1,	-1,	-1,	-1,	-1,	-1,	36,	-1,	-1,	3,	16,	5,	-1,	-1,	10,	-1,	-1,	-1,	-1,	-1,	-1|
-1,	-1,	-1,	-1,	-1,	-1,	-1,	21,	16,	-1,	18,	7,	-1,	33,	-1,	-1,	15,	-1,	-1,	14,	10,	-1,	4,	-1,	30,	-1,	-1,	-1,	2,	-1,	-1,	-1,	-1,	-1,	-1,	-1|
-1,	-1,	-1,	-1,	31,	-1,	-1,	32,	-1,	-1,	-1,	-1,	-1,	36,	12,	-1,	-1,	24,	-1,	-1,	21,	-1,	-1,	-1,	26,	-1,	-1,	34,	-1,	-1,	-1,	22,	-1,	16,	-1,	-1|
-1,	32,	-1,	-1,	4,	-1,	30,	-1,	-1,	20,	-1,	36,	27,	16,	-1,	-1,	-1,	-1,	-1,	-1,	-1,	-1,	-1,	-1,	-1,	-1,	29,	-1,	-1,	-1,	10,	17,	-1,	5,	-1,	6|
-1,	-1,	-1,	3,	-1,	-1,	-1,	-1,	-1,	-1,	28,	-1,	7,	-1,	-1,	-1,	-1,	-1,	-1,	-1,	-1,	-1,	-1,	-1,	-1,	30,	-1,	19,	6,	-1,	25,	-1,	-1,	-1,	22,	-1|
25,	-1,	30,	-1,	1,	-1,	-1,	16,	12,	26,	-1,	-1,	29,	-1,	-1,	-1,	-1,	6,	-1,	-1,	-1,	-1,	-1,	-1,	-1,	4,	34,	-1,	-1,	-1,	7,	-1,	-1,	-1,	-1,	-1|
-1,	16,	28,	-1,	15,	32,	-1,	-1,	36,	10,	-1,	-1,	-1,	-1,	17,	-1,	-1,	30,	-1,	7,	14,	-1,	29,	25,	23,	-1,	26,	21,	18,	9,	-1,	-1,	-1,	-1,	-1,	-1|
-1,	33,	26,	-1,	14,	13,	-1,	29,	-1,	-1,	1,	-1,	-1,	-1,	-1,	-1,	-1,	-1,	-1,	27,	-1,	-1,	-1,	-1,	-1,	20,	-1,	-1,	-1,	15,	-1,	32,	-1,	-1,	-1,	-1|
19,	-1,	-1,	-1,	-1,	7,	-1,	2,	-1,	13,	-1,	11,	-1,	-1,	-1,	22,	-1,	-1,	-1,	-1,	15,	6,	-1,	-1,	-1,	-1,	-1,	-1,	-1,	-1,	-1,	29,	4,	-1,	-1,	-1|
-1,	-1,	-1,	-1,	18,	-1,	7,	15,	-1,	19,	-1,	-1,	-1,	-1,	28,	-1,	-1,	-1,	-1,	36,	-1,	31,	-1,	-1,	-1,	25,	-1,	-1,	-1,	-1,	-1,	34,	-1,	1,	6,	-1|
-1,	-1,	-1,	12,	22,	-1,	1,	28,	-1,	36,	-1,	2,	-1,	-1,	-1,	19,	-1,	14,	-1,	-1,	29,	-1,	-1,	35,	-1,	-1,	-1,	-1,	4,	-1,	-1,	-1,	-1,	-1,	-1,	-1|
7,	11,	-1,	-1,	-1,	-1,	-1,	-1,	-1,	-1,	27,	-1,	-1,	-1,	-1,	-1,	-1,	-1,	-1,	-1,	-1,	-1,	18,	-1,	-1,	-1,	25,	-1,	-1,	-1,	1,	-1,	35,	-1,	10,	24|
-1,	-1,	-1,	27,	2,	-1,	-1,	-1,	19,	-1,	-1,	5,	-1,	-1,	-1,	17,	-1,	-1,	15,	-1,	-1,	-1,	-1,	-1,	1,	24,	-1,	-1,	-1,	-1,	-1,	-1,	-1,	-1,	-1,	13|
-1,	-1,	-1,	-1,	-1,	-1,	-1,	11,	26,	-1,	20,	-1,	-1,	-1,	-1,	5,	-1,	-1,	-1,	25,	-1,	-1,	-1,	-1,	-1,	-1,	32,	-1,	7,	-1,	36,	14,	-1,	-1,	8,	21|
3,	-1,	32,	-1,	-1,	-1,	-1,	-1,	7,	-1,	-1,	-1,	8,	-1,	-1,	-1,	-1,	-1,	-1,	-1,	36,	21,	-1,	-1,	15,	11,	-1,	-1,	5,	26,	-1,	-1,	-1,	-1,	-1,	-1|
-1,	-1,	-1,	-1,	-1,	-1,	-1,	-1,	4,	15,	-1,	-1,	32,	20,	-1,	-1,	-1,	-1,	-1,	-1,	-1,	-1,	31,	24,	-1,	-1,	-1,	36,	-1,	-1,	-1,	-1,	-1,	-1,	-1,	-1|
18,	-1,	-1,	35,	-1,	-1,	-1,	-1,	10,	-1,	-1,	-1,	-1,	-1,	-1,	-1,	25,	20,	8,	-1,	-1,	1,	-1,	-1,	-1,	13,	21,	5,	-1,	-1,	-1,	26,	22,	11,	19,	31|
-1,	-1,	-1,	-1,	-1,	-1,	-1,	-1,	-1,	-1,	4,	-1,	-1,	-1,	6,	-1,	-1,	7,	35,	-1,	-1,	-1,	-1,	31,	-1,	-1,	-1,	-1,	-1,	20,	-1,	-1,	-1,	-1,	-1,	-1|
-1,	-1,	-1,	-1,	-1,	-1,	-1,	-1,	-1,	22,	-1,	-1,	1,	-1,	32,	-1,	17,	15,	-1,	-1,	-1,	-1,	-1,	-1,	-1,	8,	-1,	-1,	-1,	-1,	-1,	10,	33,	24,	-1,	-1|
-1,	-1,	-1,	-1,	-1,	17,	26,	-1,	-1,	-1,	21,	-1,	-1,	22,	-1,	-1,	-1,	-1,	-1,	-1,	5,	-1,	-1,	23,	-1,	31,	3,	-1,	11,	34,	15,	-1,	-1,	-1,	-1,	-1|
-1,	-1,	-1,	4,	7,	-1,	-1,	5,	-1,	-1,	-1,	-1,	-1,	-1,	-1,	-1,	-1,	-1,	9,	-1,	-1,	-1,	-1,	-1,	-1,	-1,	27,	-1,	15,	-1,	-1,	-1,	-1,	-1,	-1,	-1|
12,	-1,	-1,	-1,	-1,	-1,	31,	-1,	-1,	-1,	-1,	-1,	-1,	-1,	19,	-1,	-1,	-1,	-1,	-1,	32,	14,	-1,	-1,	24,	-1,	-1,	-1,	29,	30,	-1,	-1,	-1,	-1,	23,	-1|
35,	21,	-1,	-1,	-1,	-1,	-1,	-1,	27,	-1,	3,	-1,	18,	-1,	34,	-1,	-1,	-1,	-1,	-1,	-1,	25,	-1,	-1,	-1,	28,	-1,	23,	-1,	-1,	-1,	-1,	-1,	-1,	-1,	12|
-1,	-1,	18,	16,	27,	-1,	-1,	31,	-1,	-1,	-1,	-1,	23,	-1,	36,	-1,	-1,	22,	-1,	30,	-1,	-1,	-1,	-1,	-1,	-1,	4,	-1,	-1,	-1,	-1,	-1,	1,	-1,	33,	-1|
13,	-1,	23,	-1,	-1,	-1,	-1,	33,	-1,	-1,	29,	-1,	-1,	-1,	11,	-1,	-1,	-1,	-1,	-1,	-1,	2,	6,	-1,	10,	-1,	7,	14,	19,	5,	-1,	-1,	9,	25,	27,	-1|
-1,	-1,	31,	15,	-1,	-1,	-1,	-1,	13,	17,	36,	-1,	-1,	-1,	-1,	-1,	-1,	-1,	-1,	-1,	11,	-1,	-1,	-1,	-1,	-1,	30,	-1,	-1,	-1,	-1,	-1,	26,	-1,	-1,	-1|
-1,	2,	11,	-1,	33,	-1,	-1,	23,	-1,	-1,	-1,	-1,	-1,	-1,	5,	-1,	-1,	-1,	-1,	-1,	20,	-1,	19,	-1,	-1,	-1,	-1,	12,	26,	-1,	-1,	13,	-1,	-1,	-1,	17|
32,	12,	19,	7,	5,	-1,	-1,	-1,	-1,	-1,	30,	-1,	13,	28,	-1,	-1,	-1,	33,	-1,	-1,	-1,	4,	-1,	-1,	17,	-1,	24,	-1,	-1,	-1,	29,	36,	-1,	-1,	-1,	-1|];
